38 2750 100000 0 0 8 30
12000 16000 0
 4967	  2049	     235
 9504	  26955      527
 10458	  4509	     435
 20556	  8035	     732
 23758	  6981	     428
 11712	  3016	     801
 19652	  15073      362
 17725	  3342	     688
  5645	  24076       556
 12651	  24239       464
 3728	  23699       512
 5986	  11491       326
 23823	  1830	      814
 2674	  17225       510
 9891	  15807       620
 6779	  24440       581
 2945	  4289	      486
 22859	  16046       675
 19366	  25142       746
 7682	  5569	      149
 3748	  16497       562
 13384	  6096	      553
 20330	  6748	      490
 20872	  625	      428
 13846	  23850       664
 10423	  2420	      534
 676	  6021	      637
 10804	  24302       422
 21133	  11040       574
 1871	  19358       631
 20300	  7300	      1000
 12812	  1290	      525
 14066	  23110       289
 23622	  12658       643
 19095	  25983       378
 15351	  6987	      539
 4260	  14753       424
 15853	  27363       565
 
